0 68 71
1 72 74
2 71 81
3 71 79
4 73 78
5 76 77
6 60 75
7 71 72
8 68 73
9 62 71
10 61 70
11 55 69
12 38 68
13 59 65
14 55 59
15 55 60
16 52 57
17 44 54
18 42 53
19 45 51
20 42 51
21 39 51
22 45 52
23 45 50
24 49 48
25 32 40
26 30 42
27 26 42
28 35 39
29 37 38
30 23 37
31 21 33
32 22 31
33 27 30
34 28 28
35 28 30
36 27 30
37 28 28
38 21 25
39 19 25
40 21 24
41 13 24
42 13 23
43 13 21
44 12 18
45 16 16
46 15 15
47 11 13
48 8 11
49 6 10
50 8 10
51 8 8
52 4 8
53 1 7
54 4 5
55 2 3
56 2 4
57 2 2
58 2 2

